Instance name : lr211
Authors       : Geir Hasle, Oddvar Kloster
Date          : 15.05.2003 07:43:25
Reference     : Chapter in G. Hasle, K-A Lie, E. Quak (eds): Geometric Modelling, Numerical Simulation, and Optimization. ISBN 978-3-540-68782-5, Springer 2007.
Solution
Route  1 : 95 2 21 72 75 23 67 39 12 76 29 79 33 81 9 65 71 51 30 90 63 64 49 36 47 48 46 8 45 84 5 6 94 96 59 37 97 13 58 26 74 56 4 25 55 54 24 80 68 77
Route  2 : 28 27 52 69 31 88 62 11 19 7 82 83 18 99 92 98 85 61 16 86 38 44 14 42 87 57 43 15 41 22 73 40 53 50 3 78 34 35 66 20 32 10 70 1 60 17 91 100 93 89
